multiobj/instances/reallike/Ter-rl-6-2-0.80-1.0-2.in
6 2
0 46 118 40 96 98 
46 0 88 10 53 127 
118 88 0 85 53 137 
40 10 85 0 56 117 
96 53 53 56 0 154 
98 127 137 117 154 0 
0 0 53 92446 0 0 
0 0 1330 0 0 0 
53 1330 0 0 23316 224 
92446 0 0 0 0 4 
0 0 23316 0 0 1 
0 0 224 4 1 0 
0 0 40 6285 0 0 
0 0 7761 0 0 0 
40 7761 0 0 4017 3 
6285 0 0 0 0 1 
0 0 4017 0 0 20 
0 0 3 1 20 0 
