multiobj/solutions/reallike/Ter-rl-6-2-0.80-1.0-2.out
4 2
1 0 4 3 2 5 
4651596 2052492 
1 2 4 3 0 5 
6542314 1728948 
4 0 3 2 1 5 
10431698 1377966 
4 1 3 2 0 5 
11750800 1152166 
